
Gurobi 13.0.1 (linux64) logging started Fri Mar 20 19:30:26 2026

Set parameter LogFile to value "logs/140B_6F_deterministic_2026-03-20_19h28m21s.log"
Set parameter Threads to value 8
Gurobi Optimizer version 13.0.1 build v13.0.1rc0 (linux64 - "Linux Mint 22")

CPU model: 12th Gen Intel(R) Core(TM) i7-12700, instruction set [SSE2|AVX|AVX2]
Thread count: 20 physical cores, 20 logical processors, using up to 8 threads

Non-default parameters:
TimeLimit  400
SoftMemLimit  10
Threads  8

Optimize a model with 200460 rows, 5964150 columns and 17953250 nonzeros (Max)
Model fingerprint: 0xd33b8f41
Model has 5859210 linear objective coefficients
Variable types: 42150 continuous, 5922000 integer (5922000 binary)
Coefficient statistics:
  Matrix range     [8e-05, 2e+04]
  Objective range  [1e+01, 3e+03]
  Bounds range     [1e+00, 1e+05]
  RHS range        [1e+00, 1e+05]

